(set-info :total-time 51.57)
; Start decls (24)
(declare-fun b10 () (_ FloatingPoint 8 24))
(declare-fun b11 () (_ FloatingPoint 8 24))
(declare-fun b119 () (_ FloatingPoint 8 24))
(declare-fun b122 () (_ FloatingPoint 8 24))
(declare-fun b14 () (_ FloatingPoint 8 24))
(declare-fun b17 () (_ FloatingPoint 8 24))
(declare-fun b20 () (_ FloatingPoint 8 24))
(declare-fun b23 () (_ FloatingPoint 8 24))
(declare-fun b26 () (_ FloatingPoint 8 24))
(declare-fun b29 () (_ FloatingPoint 8 24))
(declare-fun b32 () (_ FloatingPoint 8 24))
(declare-fun b35 () (_ FloatingPoint 8 24))
(declare-fun b38 () (_ FloatingPoint 8 24))
(declare-fun b41 () (_ FloatingPoint 8 24))
(declare-fun b44 () (_ FloatingPoint 8 24))
(declare-fun b47 () (_ FloatingPoint 8 24))
(declare-fun b50 () (_ FloatingPoint 8 24))
(declare-fun b53 () (_ FloatingPoint 8 24))
(declare-fun b56 () (_ FloatingPoint 8 24))
(declare-fun b59 () (_ FloatingPoint 8 24))
(declare-fun b62 () (_ FloatingPoint 8 24))
(declare-fun b65 () (_ FloatingPoint 8 24))
(declare-fun b68 () (_ FloatingPoint 8 24))
(declare-fun b71 () (_ FloatingPoint 8 24))
; End decls
; Start constraints (41)
(assert (fp.lt b119 b11))
(assert (let ((a!1 (fp.mul roundNearestTiesToEven
                   (fp.mul roundNearestTiesToEven
                           (fp.mul roundNearestTiesToEven
                                   (fp.mul roundNearestTiesToEven b11 b10)
                                   b14)
                           b17)
                   b20)))
(let ((a!2 (fp.mul roundNearestTiesToEven
                   (fp.mul roundNearestTiesToEven
                           (fp.mul roundNearestTiesToEven
                                   (fp.mul roundNearestTiesToEven a!1 b23)
                                   b26)
                           b29)
                   b32)))
(let ((a!3 (fp.mul roundNearestTiesToEven
                   (fp.mul roundNearestTiesToEven
                           (fp.mul roundNearestTiesToEven
                                   (fp.mul roundNearestTiesToEven a!2 b35)
                                   b38)
                           b41)
                   b44)))
(let ((a!4 (fp.mul roundNearestTiesToEven
                   (fp.mul roundNearestTiesToEven
                           (fp.mul roundNearestTiesToEven
                                   (fp.mul roundNearestTiesToEven a!3 b47)
                                   b50)
                           b53)
                   b56)))
(let ((a!5 (fp.mul roundNearestTiesToEven
                   (fp.mul roundNearestTiesToEven
                           (fp.mul roundNearestTiesToEven
                                   (fp.mul roundNearestTiesToEven a!4 b59)
                                   b62)
                           b65)
                   b68)))
  (fp.lt a!5 b71)))))))
(assert (fp.lt b11 b122))
(assert (fp.lt b119 b14))
(assert (fp.lt b14 b122))
(assert (fp.lt b119 b17))
(assert (fp.lt b17 b122))
(assert (fp.lt b119 b20))
(assert (fp.lt b20 b122))
(assert (fp.lt b119 b23))
(assert (fp.lt b23 b122))
(assert (fp.lt b119 b26))
(assert (fp.lt b26 b122))
(assert (fp.lt b119 b29))
(assert (fp.lt b29 b122))
(assert (fp.lt b119 b32))
(assert (fp.lt b32 b122))
(assert (fp.lt b119 b35))
(assert (fp.lt b35 b122))
(assert (fp.lt b119 b38))
(assert (fp.lt b38 b122))
(assert (fp.lt b119 b41))
(assert (fp.lt b41 b122))
(assert (fp.lt b119 b44))
(assert (fp.lt b44 b122))
(assert (fp.lt b119 b47))
(assert (fp.lt b47 b122))
(assert (fp.lt b119 b50))
(assert (fp.lt b50 b122))
(assert (fp.lt b119 b53))
(assert (fp.lt b53 b122))
(assert (fp.lt b119 b56))
(assert (fp.lt b56 b122))
(assert (fp.lt b119 b59))
(assert (fp.lt b59 b122))
(assert (fp.lt b119 b62))
(assert (fp.lt b62 b122))
(assert (fp.lt b119 b65))
(assert (fp.lt b65 b122))
(assert (fp.lt b119 b68))
(assert (fp.lt b68 b122))
; End constraints
(check-sat)
